(set-info :smt-lib-version 2.6)
(set-logic QF_UFLRA)
(set-info :source |
MathSat group

|)
(set-info :category "random")
(set-info :status sat)
(declare-fun x0 () Real)
(declare-fun x1 () Real)
(declare-fun x2 () Real)
(declare-fun x3 () Real)
(declare-fun x4 () Real)
(declare-fun x5 () Real)
(declare-fun x6 () Real)
(declare-fun x7 () Real)
(declare-fun x8 () Real)
(declare-fun x9 () Real)
(declare-fun x10 () Real)
(declare-fun x11 () Real)
(declare-fun x12 () Real)
(declare-fun x13 () Real)
(declare-fun x14 () Real)
(declare-fun x15 () Real)
(declare-fun x16 () Real)
(declare-fun x17 () Real)
(declare-fun x18 () Real)
(declare-fun x19 () Real)
(declare-fun x20 () Real)
(declare-fun x21 () Real)
(declare-fun x22 () Real)
(declare-fun x23 () Real)
(declare-fun x24 () Real)
(declare-fun x25 () Real)
(declare-fun x26 () Real)
(declare-fun x27 () Real)
(declare-fun x28 () Real)
(declare-fun x29 () Real)
(declare-fun x30 () Real)
(declare-fun x31 () Real)
(declare-fun x32 () Real)
(declare-fun x33 () Real)
(declare-fun x34 () Real)
(declare-fun x35 () Real)
(declare-fun x36 () Real)
(declare-fun x37 () Real)
(declare-fun x38 () Real)
(declare-fun x39 () Real)
(declare-fun x40 () Real)
(declare-fun x41 () Real)
(declare-fun x42 () Real)
(declare-fun x43 () Real)
(declare-fun x44 () Real)
(declare-fun x45 () Real)
(declare-fun x46 () Real)
(declare-fun x47 () Real)
(declare-fun x48 () Real)
(declare-fun x49 () Real)
(declare-fun f0_1 (Real) Real)
(declare-fun f0_2 (Real Real) Real)
(declare-fun f0_3 (Real Real Real) Real)
(declare-fun f0_4 (Real Real Real Real) Real)
(declare-fun P0 () Bool)
(declare-fun P1 () Bool)
(declare-fun P2 () Bool)
(declare-fun P3 () Bool)
(declare-fun P4 () Bool)
(declare-fun P5 () Bool)
(declare-fun P6 () Bool)
(declare-fun P7 () Bool)
(declare-fun P8 () Bool)
(declare-fun P9 () Bool)
(declare-fun P10 () Bool)
(declare-fun P11 () Bool)
(declare-fun P12 () Bool)
(declare-fun P13 () Bool)
(declare-fun P14 () Bool)
(declare-fun P15 () Bool)
(declare-fun P16 () Bool)
(declare-fun P17 () Bool)
(declare-fun P18 () Bool)
(declare-fun P19 () Bool)
(declare-fun P20 () Bool)
(declare-fun P21 () Bool)
(declare-fun P22 () Bool)
(declare-fun P23 () Bool)
(declare-fun P24 () Bool)
(declare-fun P25 () Bool)
(declare-fun P26 () Bool)
(declare-fun P27 () Bool)
(declare-fun P28 () Bool)
(declare-fun P29 () Bool)
(declare-fun P30 () Bool)
(declare-fun P31 () Bool)
(declare-fun P32 () Bool)
(declare-fun P33 () Bool)
(declare-fun P34 () Bool)
(declare-fun P35 () Bool)
(declare-fun P36 () Bool)
(declare-fun P37 () Bool)
(declare-fun P38 () Bool)
(declare-fun P39 () Bool)
(declare-fun P40 () Bool)
(declare-fun P41 () Bool)
(declare-fun P42 () Bool)
(declare-fun P43 () Bool)
(declare-fun P44 () Bool)
(declare-fun P45 () Bool)
(declare-fun P46 () Bool)
(declare-fun P47 () Bool)
(declare-fun P48 () Bool)
(declare-fun P49 () Bool)
(assert (let ((?v_111 (* 23 x42)) (?v_0 (* 18 x15)) (?v_9 (= (- (- (* 26 x1) (* 2 x45)) (* 27 x19)) 13)) (?v_26 (<= (- (- (* 5 x14) (* 26 x33)) (* 10 x35)) 2)) (?v_11 (distinct (+ (- (* 6 x5) (* 24 x28)) (* 13 x36)) 23)) (?v_46 (* 5 x46)) (?v_74 (distinct (+ (- (* 10 x4) (* 27 x4)) (* 4 x18)) 5)) (?v_33 (* 11 x30))) (let ((?v_123 (distinct (- (+ (* 13 x49) (* 27 x20)) ?v_33) 14)) (?v_97 (<= (- (- (* 15 x27) (* 8 x16)) (* 26 x29)) 4)) (?v_98 (<= (+ (- (* 5 x21) (* 4 x48)) (* 15 x7)) 12)) (?v_192 (distinct (- (- (* 18 x48) (* 5 x47)) (* 27 x45)) 10)) (?v_28 (= x43 x12)) (?v_7 (= (f0_2 x3 x3) x19)) (?v_90 (= (f0_1 x11) x9)) (?v_10 (= (f0_1 x23) (f0_2 x19 x43))) (?v_150 (distinct (f0_2 x4 x4) x30)) (?v_73 (f0_1 x40))) (let ((?v_89 (distinct ?v_73 x0)) (?v_216 (distinct (f0_2 x8 x1) x24)) (?v_114 (f0_1 x18)) (?v_59 (f0_1 x37))) (let ((?v_236 (distinct ?v_114 ?v_59)) (?v_1 (f0_1 x3)) (?v_23 (f0_1 x8))) (let ((?v_151 (distinct ?v_1 ?v_23)) (?v_178 (= x43 x10)) (?v_148 (distinct (f0_1 x48) (f0_1 x1))) (?v_121 (distinct x42 (f0_2 x22 x45))) (?v_12 (= x16 ?v_23)) (?v_44 (distinct (f0_1 x13) (f0_2 x43 x12))) (?v_120 (= (f0_1 x38) x35)) (?v_214 (= (f0_2 x5 x34) (f0_2 x48 x49))) (?v_41 (f0_1 x32))) (let ((?v_24 (distinct (f0_2 x16 x31) ?v_41)) (?v_100 (= (f0_1 x15) x36)) (?v_152 (distinct (f0_2 x23 x37) (f0_2 x24 x8))) (?v_187 (distinct (f0_2 x37 x24) ?v_114)) (?v_122 (distinct (f0_2 x7 x30) x38)) (?v_31 (f0_1 x45))) (let ((?v_54 (= x33 ?v_31)) (?v_128 (distinct (f0_2 x42 x6) (f0_1 x28))) (?v_61 (distinct x16 (f0_2 x48 x1))) (?v_172 (distinct (f0_2 x42 x0) ?v_31)) (?v_4 (f0_1 x2))) (let ((?v_76 (= x18 ?v_4)) (?v_17 (distinct x34 x30)) (?v_27 (distinct (f0_1 x33) (f0_2 x35 x26))) (?v_144 (distinct (f0_2 x2 x27) x47)) (?v_53 (= x35 (f0_2 x12 x6))) (?v_55 (f0_1 x44))) (let ((?v_202 (= ?v_55 (f0_2 x24 x49))) (?v_88 (= ?v_55 x24)) (?v_81 (distinct (f0_2 x32 x41) ?v_1)) (?v_174 (distinct (f0_2 x24 x15) (f0_1 x14))) (?v_182 (distinct (f0_1 x24) (f0_2 x15 x20))) (?v_51 (distinct ?v_1 (f0_2 x34 x44))) (?v_191 (distinct ?v_41 x14)) (?v_125 (= (f0_2 x0 x49) (f0_2 x24 x0))) (?v_205 (distinct ?v_41 x24)) (?v_15 (= (f0_2 x6 x25) x11)) (?v_185 (distinct (f0_2 x32 x7) (f0_2 x0 x8))) (?v_157 (distinct x39 ?v_59)) (?v_196 (= (f0_2 x28 x46) x16)) (?v_105 (distinct (f0_2 x46 x35) ?v_73)) (?v_57 (distinct (f0_2 x22 x48) (f0_1 x31))) (?v_3 (distinct x24 (f0_2 x36 x21))) (?v_203 (= x8 (f0_2 x49 x36))) (?v_145 (distinct (f0_1 x10) (f0_2 x11 x47))) (?v_71 (distinct x7 ?v_4)) (?v_86 (not ?v_61))) (let ((?v_63 (not ?v_3)) (?v_35 (not ?v_51)) (?v_2 (not ?v_88)) (?v_39 (not P45)) (?v_116 (not P27)) (?v_29 (not ?v_10)) (?v_102 (not ?v_120)) (?v_22 (not ?v_121)) (?v_221 (not ?v_57)) (?v_92 (not ?v_144)) (?v_80 (not P8)) (?v_64 (not ?v_216)) (?v_165 (not ?v_182)) (?v_85 (not ?v_76)) (?v_93 (not P7)) (?v_194 (not ?v_26)) (?v_16 (not ?v_172)) (?v_133 (not P15)) (?v_32 (not ?v_17)) (?v_8 (not P22)) (?v_134 (not P48)) (?v_118 (not ?v_7)) (?v_115 (not P2)) (?v_149 (not ?v_9)) (?v_131 (not P41)) (?v_141 (not P12)) (?v_190 (not ?v_15)) (?v_235 (not P31)) (?v_19 (not P4)) (?v_189 (not P13)) (?v_197 (not P9)) (?v_124 (not P46)) (?v_163 (not P38)) (?v_34 (not P23)) (?v_79 (not (distinct (f0_2 x31 x12) x48))) (?v_47 (not P10)) (?v_56 (not ?v_100)) (?v_109 (not ?v_151)) (?v_25 (not ?v_150)) (?v_42 (not ?v_27)) (?v_78 (not ?v_123)) (?v_181 (not P39)) (?v_48 (not P25)) (?v_246 (not ?v_105)) (?v_228 (not ?v_214)) (?v_171 (not P36)) (?v_199 (not ?v_205)) (?v_184 (not ?v_152)) (?v_67 (not P30)) (?v_69 (not ?v_54)) (?v_91 (not ?v_90)) (?v_107 (not ?v_24)) (?v_167 (not ?v_98)) (?v_87 (not P11)) (?v_252 (not ?v_196)) (?v_146 (not P49)) (?v_77 (not ?v_11)) (?v_208 (not ?v_28)) (?v_166 (not ?v_236)) (?v_162 (not ?v_44)) (?v_170 (not P47)) (?v_226 (not ?v_74)) (?v_175 (not ?v_71)) (?v_135 (not ?v_148)) (?v_159 (not P35)) (?v_237 (not P28)) (?v_104 (not P33)) (?v_96 (not P5)) (?v_186 (not ?v_81)) (?v_110 (not P29)) (?v_223 (not P17)) (?v_158 (not P43)) (?v_101 (not P3)) (?v_222 (not ?v_12)) (?v_220 (not ?v_89)) (?v_238 (not P18)) (?v_103 (not P34)) (?v_137 (not P19)) (?v_140 (not ?v_187)) (?v_153 (not P26)) (?v_249 (not P20)) (?v_201 (not ?v_53)) (?v_143 (not ?v_125)) (?v_173 (not P32)) (?v_240 (not ?v_178)) (?v_213 (not P21)) (?v_212 (not P40)) (?v_210 (not P14)) (?v_253 (not ?v_128)) (?v_207 (not ?v_157)) (?v_198 (not ?v_185)) (?v_204 (not ?v_192)) (?v_255 (not ?v_191)) (?v_247 (not P1))) (let ((?v_244 (or ?v_15 ?v_198)) (?v_206 (not P37)) (?v_239 (not P6)) (?v_224 (not ?v_203)) (?v_242 (not P24)) (?v_231 (not P44)) (?v_241 (not P0)) (?v_234 (not ?v_145)) (?v_248 (not ?v_97)) (?v_250 (not ?v_122)) (?v_256 (not ?v_202)) (?v_258 (not P16)) (?v_260 (not P42)) (?v_49 (<= (- 0 (* 3 x30)) 1))) (let ((?v_156 (not ?v_49)) (?v_13 (<= (+ (* 19 x11) (* 24 x32) ?v_46) 1)) (?v_70 (< (+ (- (* 8 x13) (* 21 x1)) x12) 1))) (let ((?v_40 (not ?v_70))) (let ((?v_136 (or ?v_40 ?v_199)) (?v_160 (= (+ (- x48 (* 13 x34)) (* 8 x25)) 5)) (?v_259 (< (+ ?v_111 (* 25 x40) (* 12 x12)) 6))) (let ((?v_142 (not ?v_259)) (?v_169 (<= (+ (* 9 x5) (* 12 x34)) 22))) (let ((?v_138 (not ?v_169)) (?v_188 (not ?v_160)) (?v_180 (< (+ (- (* 26 x38) 0) (* 15 x38)) 19))) (let ((?v_262 (not ?v_180)) (?v_65 (<= (+ (* (- 8) x47) (* 8 x47) (* 15 x8)) 27))) (let ((?v_99 (not ?v_65)) (?v_132 (distinct (+ (* 24 x49) ?v_33) (- 9)))) (let ((?v_50 (not ?v_132)) (?v_154 (<= (- (- (* (- 4) x0) (* 18 x3)) (* 27 x25)) 23)) (?v_68 (<= (- (+ (* (- 12) x34) (* 23 x2)) (* 9 x2)) 2))) (let ((?v_219 (not ?v_68)) (?v_20 (distinct (- (- ?v_0 (* 18 x20)) ?v_0) (- 2))) (?v_18 (< (- (- (* (- 19) x5) (* 26 x41)) x11) (- 11))) (?v_45 (* (- 4) x21))) (let ((?v_5 (distinct (- (+ ?v_45 (* 25 x42)) (* 8 x19)) (- 13))) (?v_21 (distinct (+ (* (- 24) x25) (* 7 x12) (* 6 x19)) (- 22))) (?v_30 (distinct (- (- (* (- 24) x22) x40) (* 25 x22)) (- 21)))) (let ((?v_245 (not ?v_30)) (?v_251 (not ?v_5)) (?v_83 (distinct (- (+ (* (- 21) x11) (* 20 x22)) (* 12 x44)) (- 4))) (?v_6 (<= (+ (- (* (- 4) x41) (* 17 x25)) (* 27 x8)) (- 13)))) (let ((?v_14 (not ?v_6)) (?v_200 (<= (+ (* (- 27) x37) (* 23 x10) (* 23 x21)) (- 13)))) (let ((?v_113 (not ?v_200)) (?v_84 (<= (+ x2 (* 2 x49) (* 14 x18)) (- 14))) (?v_52 (<= (+ (* (- 21) x10) (* 12 x23) (* 9 x31)) (- 11))) (?v_37 (<= (+ (- (* (- 14) x39) (* 14 x14)) (* 5 x4)) (- 2)))) (let ((?v_112 (not ?v_37)) (?v_38 (<= (- (+ (* (- 21) x7) (* 21 x30)) (* 15 x37)) 1)) (?v_168 (not ?v_20)) (?v_193 (<= (+ (- (* (- 27) x13) (* 24 x46)) (* 12 x38)) (- 14)))) (let ((?v_66 (not ?v_193)) (?v_60 (not ?v_21)) (?v_117 (<= (+ (* (- 22) x43) (* 12 x26) (* 15 x32)) 14))) (let ((?v_36 (not ?v_117)) (?v_261 (<= (- (+ (* 21 x28) x4) (* 12 x8)) (- 20)))) (let ((?v_233 (not ?v_261)) (?v_130 (< (+ x1 ?v_111 (* 3 x5)) (- 9)))) (let ((?v_43 (not ?v_130)) (?v_211 (< (- (+ (* (- 12) x39) (* 16 x12)) (* 26 x18)) (- 25)))) (let ((?v_127 (not ?v_211)) (?v_72 (= (+ (- (* 2 x46) (* 13 x3)) (* 27 x13)) (- 23)))) (let ((?v_209 (not ?v_72)) (?v_75 (<= (- (+ (* (- 21) x37) (* 7 x17)) (* 2 x20)) 12))) (let ((?v_95 (not ?v_75)) (?v_62 (< (- (- (* (- 14) x43) (* 7 x25)) (* 19 x20)) 19))) (let ((?v_254 (not ?v_62)) (?v_179 (not ?v_38)) (?v_139 (< (+ (- ?v_45 (* 23 x46)) (* 7 x34)) (- 3))) (?v_58 (<= (+ ?v_46 (* 16 x7)) (- 4))) (?v_126 (distinct (+ (* (- 7) x15) (* 23 x1) (* 20 x49)) 16)) (?v_230 (< (- (- (* (- 8) x30) (* 17 x45)) (* 23 x44)) (- 28)))) (let ((?v_82 (not ?v_230)) (?v_106 (not ?v_58)) (?v_108 (< (+ (- (* (- 18) x35) (* 11 x27)) (* 16 x23)) 23)) (?v_94 (= (- (+ (* (- 19) x24) (* 15 x12)) (* 3 x26)) 7))) (let ((?v_129 (not ?v_94)) (?v_147 (distinct (- (+ (* 7 x36) (* 5 x27)) (* 18 x31)) (- 4))) (?v_232 (<= (- (+ (* (- 27) x9) (* 12 x20)) 0) (- 29))) (?v_164 (not ?v_52)) (?v_119 (< (- (+ (* 2 x47) (* 19 x10)) 0) (- 4)))) (let ((?v_229 (not ?v_119)) (?v_155 (not ?v_108)) (?v_225 (not ?v_126)) (?v_177 (not ?v_83)) (?v_218 (not ?v_139)) (?v_257 (not ?v_154)) (?v_215 (<= (+ (- (* (- 17) x12) 0) (* 27 x15)) 3))) (let ((?v_195 (not ?v_215)) (?v_176 (<= (+ (* (- 2) x9) (* 27 x22) (* 20 x27)) 23))) (let ((?v_161 (not ?v_176)) (?v_183 (not ?v_84)) (?v_217 (not ?v_147)) (?v_227 (not ?v_18)) (?v_243 (not ?v_232))) (and (and (and (and (and (and (and (and (and (and (and (and (and (and (and (and (and (and (and (and (and (and (and (and (and (and (and (and (and (and (and (and (and (and (and (and (and (and (and (and (and (and (and (and (and (and (and (and (and (and (and (and (and (and (and (and (and (and (and (and (and (and (and (and (and (and (and (and (and (and (and (and (and (and (and (and (and (and (and (and (and (and (and (and (and (and (and (and (and (and (and (and (and (and (and (and (and (and (and (and (and (and (and (and (and (and (and (and (and (and (and (and (and (and (and (and (and (and (and (and (and (and (and (and (and (and (and (and (and (and (and (and (and (and (and (and (and (and (and (and (and (and (and (and (and (and (and (and (and (and (and (and (and (and (and (and (and (and (and (and (and (and (and (and (and (and (and (and (and (and (and (and (and (and (and (and (and (and (and (and (and (and (and (and (and (and (and (and (and (and (and (and (and (and (and (and (and (and (and (and (and (and (and (and (and (and (and (and (and (and (and (and (and (and (and (and (and (and (and (and (and (and (and (and (and (and (and (and (and (and (and (and (and (and (and (and (and (and (and (and (and (and (and (and (and (and (and (and (and (and (and (and (and (and (and (and (and (and (and (and (and (and (and (and (and (and (and (and (and (and (and (and (and (and (and (and (and (and (and (and (and (and (and (and (and (and (and (and (and (and (and (and (and (and (and (and (and (and (and (and (and (and (and (and (and (and (and (and (and (and (and (and (and (and (and (and (and (and (and (and (and (and (and (and (and (and (and (and (and (and (and (and (and (and (and (and (and (and (and (and (and (and (and (and (and (and (and (and (and (and (and (and (and (and (and (and (and (and (and (and (and (and (and (and (and (and (and (and (and (and (and (and (and (and (and (and (and (and (and (and (and (and (and (and (and (and (and (and (and (and (and (and (and (and (and (and (and (and (and (and (and (and (and (and (and (and (and (and (and (and (and (and (and (and (and (and (and (and (and (and (and (and (and (and (and (and (and (and (and (and (and (and (and (and (and (and (and (and (and (and (and (and (and (and (and (and (and (and (and (and (and (and (and (and (and (and (and (and (and (and (and (and (and (and (and (and (and (and (and (and (and (and (and (and (and (and (and (and (and (and (and (and (and (and (and (and (and (and (and (and (and (and (and (and (and (and (and (and (and (and (and (and (and (and (and (and (and (and (and (and (and (and (and (and (and (and (and (and (and (and (and (and (and (and (and (and (and (and (and (and (and (and (and (and (and (and (and (and (and (and (and (and (and (and (and (and (and (and (and (and (and (and (and (and (and (and (and (and (and (and (and (and (and (and (and (and (and (and (and (and (and (and (and (and (and (and (and (and (and (and (and (and (and (and (and (and (and (and (and (and (and (and (and (and (and (and (and (and (and (or (or ?v_27 ?v_174) ?v_99) (or (or P30 ?v_86) ?v_156)) (or (or ?v_13 ?v_128) ?v_63)) (or (or P40 ?v_50) ?v_154)) (or (or P35 ?v_35) ?v_2)) (or (or ?v_219 P39) ?v_39)) (or (or ?v_71 P43) ?v_20)) (or (or ?v_116 ?v_81) ?v_7)) (or (or ?v_29 ?v_102) ?v_22)) (or (or ?v_221 ?v_40) P10)) (or (or ?v_18 P37) ?v_5)) (or (or P5 ?v_92) ?v_21)) (or (or ?v_245 ?v_80) ?v_64)) (or (or ?v_15 ?v_2) ?v_3)) (or (or ?v_165 ?v_85) ?v_93)) (or (or ?v_251 ?v_12) ?v_194)) (or (or ?v_83 P16) ?v_14)) (or (or ?v_16 ?v_11) ?v_113)) (or (or ?v_84 ?v_133) ?v_32)) (or (or ?v_6 ?v_8) ?v_134)) (or (or P12 ?v_118) ?v_115)) (or (or ?v_24 ?v_52) P22)) (or (or ?v_8 ?v_122) P26)) (or (or ?v_149 ?v_112) P3)) (or (or ?v_9 ?v_10) ?v_38)) (or (or ?v_131 ?v_11) ?v_12)) (or (or ?v_141 ?v_13) ?v_14)) (or (or ?v_190 ?v_16) ?v_53)) (or (or ?v_17 ?v_235) ?v_18)) (or (or ?v_19 P1) ?v_189)) (or (or ?v_197 ?v_124) ?v_19)) (or (or P4 ?v_168) P3)) (or (or ?v_66 P8) ?v_60)) (or (or ?v_163 P8) P6)) (or (or ?v_28 ?v_34) ?v_2)) (or (or ?v_79 ?v_22) ?v_47)) (or (or ?v_36 ?v_56) ?v_8)) (or (or ?v_109 ?v_233) ?v_25)) (or (or ?v_24 ?v_25) ?v_26)) (or (or ?v_43 ?v_42) ?v_28)) (or (or ?v_29 P27) ?v_30)) (or (or ?v_54 ?v_32) ?v_78)) (or (or ?v_34 ?v_35) ?v_36)) (or (or ?v_181 ?v_18) ?v_37)) (or (or ?v_48 ?v_34) ?v_127)) (or (or ?v_246 ?v_34) ?v_209)) (or (or ?v_95 ?v_254) ?v_228)) (or (or ?v_179 ?v_39) P2)) (or (or P21 ?v_145) ?v_171)) (or ?v_136 ?v_42)) (or (or ?v_184 ?v_25) ?v_44)) (or (or ?v_43 P29) P47)) (or (or ?v_67 ?v_44) P21)) (or (or ?v_139 ?v_58) ?v_47)) (or (or ?v_48 ?v_49) P7)) (or (or P21 P6) P45)) (or (or P20 ?v_50) ?v_51)) (or (or ?v_185 ?v_192) ?v_126)) (or (or ?v_52 ?v_53) P7)) (or (or ?v_69 ?v_202) ?v_8)) (or (or ?v_56 ?v_82) ?v_48)) (or (or ?v_57 ?v_157) P30)) (or (or ?v_91 ?v_107) P5)) (or (or ?v_167 ?v_87) ?v_252)) (or (or ?v_54 ?v_146) ?v_18)) (or (or ?v_77 P32) ?v_208)) (or (or ?v_106 ?v_166) ?v_28)) (or (or ?v_162 ?v_60) ?v_125)) (or (or P26 P48) ?v_61)) (or (or P16 ?v_170) ?v_62)) (or (or P19 ?v_63) ?v_64)) (or (or P20 P3) ?v_226)) (or (or P31 ?v_65) ?v_66)) (or (or ?v_67 ?v_68) ?v_69)) (or (or ?v_70 ?v_175) ?v_72)) (or (or ?v_89 ?v_52) ?v_74)) (or (or ?v_12 ?v_75) ?v_135)) (or (or ?v_76 ?v_77) ?v_108)) (or (or P22 ?v_159) ?v_21)) (or (or P34 ?v_34) P3)) (or (or ?v_57 P10) ?v_34)) (or (or ?v_42 ?v_237) ?v_104)) (or (or ?v_78 ?v_79) ?v_42)) (or (or ?v_80 P1) ?v_96)) (or (or ?v_186 ?v_15) P8)) (or (or ?v_82 ?v_15) ?v_9)) (or (or ?v_3 ?v_110) ?v_49)) (or (or ?v_223 ?v_158) ?v_8)) (or (or ?v_101 ?v_83) ?v_129)) (or (or ?v_12 ?v_84) ?v_72)) (or (or ?v_222 ?v_58) P40)) (or (or ?v_19 P19) ?v_54)) (or (or P32 ?v_97) ?v_85)) (or (or ?v_86 P7) P41)) (or (or ?v_68 ?v_87) ?v_88)) (or (or ?v_86 ?v_220) ?v_2)) (or (or P26 P45) ?v_90)) (or (or ?v_65 P13) ?v_48)) (or (or ?v_63 ?v_54) ?v_238)) (or (or ?v_91 ?v_92) ?v_93)) (or (or ?v_94 ?v_160) ?v_16)) (or (or ?v_147 ?v_75) ?v_21)) (or (or ?v_232 ?v_95) ?v_70)) (or (or ?v_96 P30) ?v_103)) (or (or ?v_97 ?v_98) ?v_99)) (or (or ?v_100 ?v_101) ?v_102)) (or (or ?v_103 ?v_74) ?v_104)) (or (or ?v_27 ?v_164) ?v_105)) (or (or ?v_106 ?v_107) ?v_62)) (or (or ?v_90 ?v_68) ?v_79)) (or (or P6 ?v_106) ?v_105)) (or (or ?v_108 ?v_29) ?v_137)) (or (or P15 ?v_85) ?v_119)) (or (or P35 ?v_109) ?v_10)) (or (or ?v_25 ?v_37) ?v_110)) (or (or ?v_142 ?v_112) P34)) (or (or ?v_63 ?v_113) ?v_140)) (or (or ?v_29 P12) ?v_2)) (or (or ?v_115 P11) ?v_83)) (or (or ?v_49 ?v_116) ?v_117)) (or (or ?v_118 ?v_90) P25)) (or (or ?v_229 ?v_153) ?v_120)) (or (or P17 ?v_121) ?v_122)) (or (or ?v_14 ?v_94) ?v_123)) (or (or ?v_249 ?v_82) ?v_124)) (or (or ?v_61 ?v_201) P49)) (or (or P38 ?v_143) ?v_126)) (or (or ?v_127 ?v_128) ?v_155)) (or (or ?v_83 ?v_13) ?v_97)) (or (or ?v_90 ?v_95) ?v_96)) (or (or ?v_129 ?v_130) ?v_173)) (or (or ?v_131 P19) ?v_132)) (or (or ?v_133 ?v_17) ?v_52)) (or (or ?v_40 P35) ?v_134)) (or (or ?v_135 ?v_138) ?v_44)) (or (or ?v_225 ?v_92) ?v_9)) (or (or P1 P30) ?v_13)) (or ?v_136 ?v_22)) (or (or ?v_137 ?v_18) ?v_101)) (or (or P0 ?v_43) P29)) (or (or P42 P37) ?v_103)) (or (or ?v_65 ?v_138) ?v_177)) (or (or ?v_137 ?v_218) ?v_140)) (or (or ?v_141 ?v_99) ?v_128)) (or (or ?v_142 ?v_143) ?v_140)) (or (or ?v_144 ?v_145) P19)) (or (or ?v_94 ?v_67) ?v_85)) (or (or P5 ?v_99) ?v_240)) (or (or ?v_146 ?v_147) P45)) (or (or P48 ?v_2) P11)) (or (or ?v_148 ?v_90) ?v_149)) (or (or ?v_150 ?v_137) ?v_94)) (or (or ?v_67 ?v_151) ?v_106)) (or (or ?v_152 ?v_126) ?v_153)) (or (or ?v_13 ?v_257) ?v_155)) (or (or ?v_82 ?v_156) ?v_57)) (or (or ?v_157 ?v_61) ?v_20)) (or (or P22 P39) ?v_30)) (or (or ?v_9 ?v_158) ?v_159)) (or (or ?v_195 ?v_27) ?v_161)) (or (or ?v_116 ?v_188) ?v_85)) (or (or ?v_98 ?v_161) ?v_162)) (or (or ?v_163 ?v_213) ?v_82)) (or (or ?v_180 ?v_164) P35)) (or (or ?v_32 ?v_203) ?v_191)) (or (or ?v_44 ?v_124) ?v_165)) (or (or ?v_5 ?v_83) ?v_121)) (or (or ?v_153 ?v_2) P4)) (or (or ?v_67 ?v_166) ?v_212)) (or (or ?v_167 ?v_168) P7)) (or (or P23 ?v_169) ?v_38)) (or (or ?v_183 ?v_170) ?v_69)) (or (or ?v_170 P4) ?v_89)) (or (or ?v_98 P14) ?v_129)) (or (or P14 ?v_171) ?v_172)) (or (or ?v_11 ?v_173) ?v_109)) (or (or ?v_122 ?v_132) ?v_87)) (or (or P28 P49) ?v_21)) (or (or ?v_130 ?v_78) ?v_174)) (or (or ?v_61 ?v_155) ?v_141)) (or (or ?v_143 ?v_68) ?v_175)) (or (or ?v_141 P23) ?v_118)) (or (or (not ?v_13) ?v_151) P12)) (or (or P17 P21) ?v_71)) (or (or ?v_176 P41) P3)) (or (or ?v_16 ?v_177) ?v_87)) (or (or ?v_178 ?v_179) ?v_36)) (or (or ?v_210 ?v_99) ?v_48)) (or (or ?v_253 ?v_17) P33)) (or (or ?v_207 ?v_262) ?v_62)) (or (or P9 ?v_71) ?v_48)) (or (or ?v_148 P2) ?v_181)) (or (or ?v_30 P4) ?v_26)) (or (or ?v_14 P25) ?v_125)) (or (or ?v_19 ?v_43) ?v_131)) (or (or ?v_182 P24) ?v_138)) (or (or ?v_26 ?v_183) ?v_184)) (or (or ?v_198 ?v_54) ?v_104)) (or (or ?v_52 ?v_186) ?v_187)) (or (or ?v_5 ?v_188) ?v_17)) (or (or ?v_189 P25) ?v_190)) (or (or ?v_191 ?v_204) ?v_112)) (or (or ?v_118 ?v_193) ?v_38)) (or (or ?v_154 ?v_255) ?v_194)) (or (or P18 P29) ?v_247)) (or (or ?v_195 P7) ?v_17)) (or (or P4 ?v_124) ?v_37)) (or (or ?v_39 ?v_161) P15)) (or (or ?v_60 ?v_196) ?v_14)) (or (or ?v_150 ?v_169) P26)) (or (or P18 P47) ?v_197)) (or (or P15 ?v_152) ?v_3)) (or (or ?v_145 ?v_121) ?v_56)) (or (or P34 ?v_113) P8)) (or ?v_244 ?v_197)) (or (or ?v_183 ?v_195) ?v_182)) (or (or P38 ?v_199) ?v_217)) (or (or ?v_206 ?v_126) ?v_19)) (or (or ?v_122 ?v_177) ?v_14)) (or (or P13 ?v_200) ?v_140)) (or (or ?v_201 ?v_202) ?v_161)) (or (or ?v_239 P5) ?v_132)) (or (or P42 ?v_193) ?v_224)) (or (or P1 P25) ?v_204)) (or (or ?v_40 ?v_49) ?v_205)) (or (or ?v_129 ?v_38) ?v_74)) (or (or ?v_80 ?v_206) P31)) (or (or ?v_93 ?v_191) ?v_144)) (or (or ?v_242 ?v_166) ?v_207)) (or (or ?v_119 ?v_53) ?v_105)) (or (or ?v_208 ?v_209) ?v_125)) (or (or ?v_2 P26) ?v_210)) (or (or P44 ?v_211) ?v_14)) (or (or ?v_177 P13) P6)) (or (or ?v_145 P35) ?v_63)) (or (or ?v_212 ?v_58) ?v_213)) (or (or ?v_10 ?v_188) ?v_214)) (or (or ?v_215 ?v_216) ?v_183)) (or (or ?v_189 ?v_96) ?v_84)) (or (or ?v_43 ?v_127) ?v_161)) (or (or ?v_30 ?v_54) ?v_86)) (or (or P47 P13) ?v_51)) (or (or ?v_198 ?v_174) P14)) (or (or P47 ?v_217) ?v_127)) (or (or ?v_65 ?v_155) P48)) (or (or ?v_189 ?v_134) ?v_98)) (or (or ?v_218 ?v_219) ?v_117)) (or (or ?v_137 ?v_93) ?v_220)) (or (or P23 P35) ?v_113)) (or (or ?v_221 ?v_90) ?v_222)) (or (or ?v_72 ?v_203) ?v_37)) (or (or ?v_152 ?v_39) ?v_51)) (or (or ?v_72 ?v_223) ?v_165)) (or (or P16 ?v_153) P38)) (or (or ?v_35 ?v_165) ?v_42)) (or (or ?v_147 ?v_105) ?v_224)) (or (or ?v_122 ?v_155) ?v_16)) (or (or ?v_50 ?v_186) ?v_107)) (or (or ?v_90 ?v_225) ?v_231)) (or (or ?v_139 ?v_164) ?v_12)) (or (or P44 ?v_227) ?v_61)) (or (or ?v_30 ?v_226) ?v_11)) (or (or ?v_105 ?v_126) ?v_62)) (or (or ?v_107 ?v_185) ?v_127)) (or (or ?v_82 ?v_227) ?v_214)) (or (or ?v_241 ?v_228) ?v_131)) (or (or ?v_221 ?v_214) ?v_170)) (or (or ?v_173 ?v_90) ?v_229)) (or (or ?v_68 ?v_127) P25)) (or (or ?v_79 ?v_230) ?v_127)) (or (or ?v_100 ?v_158) ?v_190)) (or (or P12 ?v_164) P16)) (or (or P20 ?v_228) ?v_191)) (or (or ?v_227 ?v_199) ?v_10)) (or (or ?v_10 ?v_119) ?v_142)) (or (or ?v_80 ?v_77) ?v_70)) (or (or P21 ?v_234) P18)) (or (or ?v_199 ?v_231) ?v_121)) (or (or P44 ?v_37) ?v_243)) (or (or ?v_140 ?v_193) ?v_233)) (or (or ?v_192 P3) ?v_40)) (or (or ?v_81 ?v_68) ?v_104)) (or (or ?v_27 ?v_152) ?v_91)) (or (or P3 P22) ?v_204)) (or (or ?v_147 ?v_186) ?v_153)) (or (or P27 ?v_206) ?v_234)) (or (or ?v_223 P20) ?v_54)) (or (or P17 ?v_235) ?v_227)) (or (or ?v_81 ?v_49) ?v_102)) (or (or ?v_63 ?v_229) P13)) (or (or ?v_171 ?v_15) ?v_72)) (or (or ?v_8 ?v_217) ?v_224)) (or (or ?v_188 P2) ?v_60)) (or (or ?v_236 ?v_25) P38)) (or (or ?v_20 ?v_188) ?v_100)) (or (or P4 ?v_76) ?v_117)) (or (or ?v_112 ?v_119) P44)) (or (or P45 P5) P2)) (or (or ?v_237 ?v_21) ?v_248)) (or (or ?v_17 ?v_238) ?v_38)) (or (or P39 ?v_87) P43)) (or (or ?v_91 P30) P36)) (or (or P14 ?v_56) ?v_87)) (or (or ?v_217 ?v_209) ?v_216)) (or (or ?v_156 ?v_140) ?v_198)) (or (or P3 ?v_210) ?v_107)) (or (or ?v_34 ?v_102) ?v_116)) (or (or ?v_147 ?v_215) ?v_184)) (or (or P26 ?v_15) P10)) (or (or ?v_168 ?v_94) ?v_150)) (or (or P11 ?v_51) ?v_137)) (or (or ?v_134 ?v_250) ?v_158)) (or (or ?v_172 ?v_15) ?v_53)) (or (or ?v_203 P14) ?v_53)) (or (or P7 ?v_162) ?v_6)) (or (or ?v_231 ?v_134) ?v_7)) (or (or ?v_190 ?v_108) P47)) (or (or ?v_37 ?v_191) ?v_49)) (or (or ?v_134 P7) ?v_228)) (or (or ?v_199 ?v_154) ?v_239)) (or (or ?v_84 ?v_5) ?v_9)) (or (or ?v_52 ?v_153) ?v_215)) (or (or ?v_238 ?v_115) P42)) (or (or ?v_30 P23) ?v_168)) (or (or ?v_86 ?v_14) ?v_240)) (or (or P9 ?v_47) P8)) (or (or ?v_143 ?v_29) ?v_162)) (or (or ?v_241 ?v_24) ?v_159)) (or (or P9 ?v_115) ?v_36)) (or (or ?v_195 ?v_157) ?v_84)) (or (or ?v_178 P40) ?v_122)) (or (or ?v_194 P45) ?v_74)) (or (or ?v_146 ?v_152) ?v_197)) (or (or P16 ?v_71) ?v_75)) (or (or ?v_233 ?v_148) ?v_121)) (or (or ?v_76 ?v_29) ?v_180)) (or (or P6 ?v_230) ?v_235)) (or (or P18 P12) ?v_152)) (or (or ?v_180 ?v_142) ?v_47)) (or (or ?v_152 ?v_149) P21)) (or (or ?v_132 ?v_142) ?v_30)) (or (or ?v_192 ?v_7) ?v_120)) (or (or ?v_242 ?v_118) P23)) (or (or ?v_190 ?v_176) ?v_95)) (or (or ?v_19 ?v_121) ?v_197)) (or (or ?v_131 P33) ?v_147)) (or (or P35 P17) P38)) (or (or ?v_164 ?v_119) ?v_117)) (or (or ?v_18 ?v_42) ?v_3)) (or (or ?v_38 ?v_147) ?v_243)) (or (or P33 P11) ?v_51)) (or (or ?v_125 ?v_85) ?v_38)) (or (or ?v_67 ?v_213) ?v_62)) (or (or P39 ?v_222) ?v_199)) (or (or ?v_208 ?v_223) ?v_104)) (or (or ?v_142 ?v_212) ?v_100)) (or (or ?v_44 ?v_24) P4)) (or (or ?v_89 ?v_221) ?v_64)) (or ?v_244 ?v_58)) (or (or ?v_242 ?v_236) ?v_49)) (or (or ?v_37 P20) ?v_203)) (or (or P42 ?v_68) ?v_80)) (or (or ?v_245 P46) ?v_140)) (or (or P22 ?v_5) P1)) (or (or ?v_167 ?v_218) ?v_234)) (or (or ?v_129 ?v_66) ?v_20)) (or (or ?v_98 ?v_207) ?v_54)) (or (or ?v_215 ?v_110) ?v_180)) (or (or P11 ?v_240) ?v_120)) (or (or P3 ?v_152) ?v_211)) (or (or ?v_170 ?v_183) P45)) (or (or ?v_177 ?v_32) ?v_129)) (or (or ?v_13 ?v_60) P4)) (or (or ?v_163 ?v_161) P30)) (or (or P20 ?v_42) P11)) (or (or ?v_52 ?v_132) ?v_13)) (or (or ?v_92 ?v_235) ?v_218)) (or (or ?v_219 ?v_239) P38)) (or (or ?v_21 ?v_152) ?v_242)) (or (or ?v_107 ?v_242) ?v_141)) (or (or ?v_173 ?v_156) ?v_15)) (or (or ?v_87 ?v_78) ?v_180)) (or (or ?v_2 ?v_194) P21)) (or (or ?v_24 ?v_123) ?v_169)) (or (or ?v_246 ?v_28) ?v_194)) (or (or ?v_140 P6) ?v_28)) (or (or ?v_135 ?v_29) P20)) (or (or ?v_127 ?v_215) P36)) (or (or ?v_142 ?v_50) ?v_92)) (or (or ?v_231 ?v_247) ?v_98)) (or (or P45 ?v_144) ?v_164)) (or (or ?v_101 ?v_127) ?v_180)) (or (or ?v_129 ?v_151) ?v_235)) (or (or P29 ?v_163) ?v_108)) (or (or P17 ?v_34) ?v_256)) (or (or ?v_248 P35) P39)) (or (or P30 ?v_12) ?v_165)) (or (or P27 ?v_70) ?v_94)) (or (or P14 ?v_165) P20)) (or (or ?v_200 ?v_43) ?v_71)) (or (or ?v_245 ?v_101) ?v_162)) (or (or ?v_249 P6) ?v_36)) (or (or ?v_65 ?v_230) ?v_5)) (or (or ?v_250 ?v_26) ?v_66)) (or (or P11 ?v_175) ?v_99)) (or (or ?v_140 P26) P42)) (or (or P32 P48) ?v_109)) (or (or P41 P16) ?v_16)) (or (or P5 ?v_146) ?v_13)) (or (or ?v_204 ?v_58) P38)) (or (or ?v_104 P17) ?v_220)) (or (or ?v_167 P48) ?v_12)) (or (or ?v_21 ?v_242) ?v_5)) (or (or ?v_189 ?v_42) ?v_86)) (or (or P35 ?v_258) P7)) (or (or ?v_191 ?v_61) ?v_15)) (or (or ?v_152 ?v_92) ?v_206)) (or (or ?v_148 ?v_153) ?v_30)) (or (or ?v_200 ?v_90) ?v_36)) (or (or ?v_180 ?v_190) ?v_68)) (or (or ?v_66 ?v_124) ?v_157)) (or (or ?v_127 P17) P36)) (or (or ?v_251 ?v_80) ?v_252)) (or (or ?v_181 ?v_247) ?v_204)) (or (or ?v_15 ?v_230) ?v_113)) (or (or ?v_253 ?v_173) P19)) (or (or ?v_162 ?v_30) P14)) (or (or ?v_109 ?v_254) ?v_165)) (or (or ?v_49 ?v_8) ?v_56)) (or (or ?v_48 ?v_40) ?v_124)) (or (or ?v_74 ?v_117) P20)) (or (or ?v_116 ?v_91) ?v_197)) (or (or P25 ?v_121) ?v_40)) (or (or ?v_66 P45) ?v_80)) (or (or ?v_134 ?v_2) ?v_190)) (or (or ?v_153 ?v_215) P5)) (or (or ?v_25 ?v_122) ?v_93)) (or (or ?v_245 P36) ?v_128)) (or (or P28 ?v_75) ?v_83)) (or (or ?v_255 ?v_123) P13)) (or (or P37 ?v_68) ?v_87)) (or (or P2 P22) ?v_241)) (or (or ?v_256 P26) ?v_176)) (or (or ?v_219 ?v_187) P7)) (or (or ?v_32 ?v_232) ?v_115)) (or (or ?v_43 ?v_9) ?v_146)) (or (or ?v_197 ?v_125) ?v_82)) (or (or ?v_100 ?v_130) ?v_27)) (or (or ?v_134 ?v_74) ?v_26)) (or (or ?v_221 ?v_122) ?v_139)) (or (or ?v_66 P30) ?v_158)) (or (or ?v_248 ?v_194) ?v_99)) (or (or ?v_237 ?v_193) ?v_87)) (or (or ?v_95 ?v_30) ?v_171)) (or (or ?v_204 ?v_200) ?v_39)) (or (or ?v_16 ?v_256) P49)) (or (or ?v_21 ?v_257) ?v_142)) (or (or ?v_199 ?v_173) ?v_81)) (or (or ?v_260 ?v_238) P45)) (or (or ?v_107 ?v_186) ?v_243)) (or (or ?v_150 ?v_174) ?v_110)) (or (or ?v_116 ?v_148) ?v_212)) (or (or ?v_52 ?v_178) ?v_112)) (or (or ?v_3 ?v_211) ?v_216)) (or (or ?v_62 ?v_54) ?v_199)) (or (or ?v_151 ?v_168) ?v_5)) (or (or P9 P22) ?v_240)) (or (or ?v_54 ?v_147) P42)) (or (or ?v_79 P7) ?v_242)) (or (or ?v_163 ?v_102) ?v_68)) (or (or ?v_172 ?v_192) ?v_187)) (or (or ?v_61 ?v_233) ?v_126)) (or (or ?v_220 ?v_181) ?v_88)) (or (or ?v_115 ?v_82) ?v_232)) (or (or ?v_80 P25) ?v_126)) (or (or ?v_240 ?v_17) ?v_58)) (or (or ?v_137 ?v_117) ?v_86)) (or (or ?v_187 ?v_75) ?v_62)) (or (or ?v_56 ?v_75) ?v_256)) (or (or ?v_25 P26) ?v_242)) (or (or ?v_149 ?v_95) ?v_154)) (or (or ?v_115 ?v_186) ?v_8)) (or (or P9 ?v_154) P7)) (or (or P33 ?v_202) ?v_236)) (or (or ?v_140 ?v_3) ?v_257)) (or (or ?v_35 ?v_172) ?v_90)) (or (or ?v_84 ?v_64) ?v_158)) (or (or ?v_141 ?v_48) ?v_106)) (or (or ?v_27 ?v_185) ?v_6)) (or (or ?v_157 ?v_91) ?v_239)) (or (or ?v_214 ?v_34) ?v_146)) (or (or ?v_81 ?v_190) P39)) (or (or P7 P24) ?v_247)) (or (or ?v_29 ?v_163) ?v_258)) (or (or ?v_49 P17) ?v_103)) (or (or ?v_110 ?v_99) ?v_210)) (or (or ?v_49 ?v_259) ?v_34)) (or (or ?v_203 ?v_233) ?v_14)) (or (or P23 ?v_14) ?v_218)) (or (or ?v_242 ?v_139) ?v_8)) (or (or ?v_108 ?v_113) ?v_166)) (or (or ?v_137 ?v_246) P41)) (or (or ?v_228 ?v_153) ?v_116)) (or (or P11 P47) ?v_192)) (or (or ?v_15 ?v_196) ?v_76)) (or (or ?v_26 ?v_239) ?v_90)) (or (or ?v_116 P5) P31)) (or (or ?v_95 ?v_152) ?v_207)) (or (or P26 ?v_187) ?v_2)) (or (or ?v_100 ?v_116) ?v_157)) (or (or ?v_67 ?v_96) ?v_165)) (or (or P7 ?v_149) ?v_216)) (or (or ?v_231 P35) ?v_25)) (or (or ?v_202 ?v_74) P24)) (or (or ?v_8 ?v_255) ?v_252)) (or (or ?v_48 ?v_48) ?v_92)) (or (or ?v_67 P48) ?v_58)) (or (or ?v_99 ?v_173) ?v_160)) (or (or ?v_34 ?v_117) ?v_120)) (or (or P44 ?v_174) P8)) (or (or ?v_192 ?v_199) P35)) (or (or P49 ?v_205) P33)) (or (or ?v_50 ?v_259) ?v_232)) (or (or ?v_18 P24) ?v_143)) (or (or ?v_225 P48) ?v_28)) (or (or ?v_14 ?v_51) ?v_232)) (or (or ?v_128 P16) ?v_98)) (or (or ?v_227 ?v_144) ?v_101)) (or (or ?v_57 ?v_89) P14)) (or (or ?v_103 ?v_177) ?v_236)) (or (or ?v_58 P17) ?v_186)) (or (or ?v_53 ?v_107) ?v_124)) (or (or ?v_116 P23) ?v_43)) (or (or ?v_100 ?v_60) P12)) (or (or ?v_107 ?v_155) ?v_151)) (or (or ?v_236 ?v_3) ?v_210)) (or (or ?v_128 P8) ?v_146)) (or (or ?v_124 ?v_252) ?v_212)) (or (or ?v_208 ?v_81) P28)) (or (or ?v_153 ?v_78) ?v_63)) (or (or ?v_247 ?v_132) P5)) (or (or ?v_184 ?v_196) (not ?v_174))) (or (or ?v_189 ?v_100) ?v_51)) (or (or ?v_85 ?v_100) ?v_229)) (or (or ?v_96 ?v_173) ?v_226)) (or (or ?v_63 ?v_253) ?v_21)) (or (or ?v_210 ?v_14) P3)) (or (or P40 ?v_90) ?v_192)) (or (or ?v_96 ?v_43) ?v_224)) (or (or ?v_86 ?v_143) ?v_3)) (or (or ?v_28 ?v_253) P39)) (or (or ?v_260 ?v_197) P44)) (or (or ?v_249 ?v_122) P44)) (or (or ?v_201 ?v_252) ?v_228)) (or (or ?v_19 ?v_150) P36)) (or (or ?v_135 ?v_80) ?v_204)) (or (or ?v_67 ?v_43) ?v_206)) (or (or ?v_133 ?v_129) ?v_249)) (or (or P31 ?v_144) ?v_211)) (or (or P12 ?v_67) ?v_234)) (or (or P2 ?v_14) ?v_191)) (or (or ?v_72 ?v_161) ?v_164)) (or (or ?v_128 ?v_237) ?v_82)) (or (or ?v_164 P20) ?v_226)) (or (or ?v_240 P15) ?v_43)) (or (or ?v_189 ?v_26) P20)) (or (or ?v_123 P4) ?v_116)) (or (or ?v_261 ?v_115) ?v_215)) (or (or ?v_8 P36) ?v_91)) (or (or ?v_169 ?v_11) ?v_81)) (or (or ?v_62 ?v_21) ?v_77)) (or (or ?v_193 P35) ?v_169)) (or (or ?v_204 ?v_2) P11)) (or (or ?v_204 ?v_175) ?v_106)) (or (or ?v_183 ?v_254) ?v_124)) (or (or ?v_239 ?v_101) ?v_140)) (or (or ?v_80 ?v_249) ?v_67)) (or (or ?v_27 P14) ?v_3)) (or (or P34 P18) ?v_210)) (or (or ?v_51 ?v_237) ?v_135)) (or (or P7 ?v_7) ?v_25)) (or (or ?v_78 ?v_154) ?v_74)) (or (or ?v_133 ?v_68) ?v_141)) (or (or ?v_257 ?v_84) ?v_56)) (or (or P33 ?v_262) ?v_103)) (or (or ?v_122 ?v_9) ?v_30)) (or (or ?v_110 ?v_262) ?v_239)) (or (or ?v_213 ?v_249) ?v_214)) (or (or ?v_71 P36) ?v_163)) (or (or ?v_210 ?v_72) ?v_127)) (or (or ?v_43 ?v_2) ?v_17)) (or (or ?v_155 ?v_170) ?v_168)) (or (or ?v_100 ?v_96) P43)) (or (or ?v_184 ?v_58) P38)) (or (or ?v_231 ?v_20) ?v_78)) (or (or P7 ?v_204) ?v_53)) (or (or ?v_75 ?v_224) ?v_231)) (or (or ?v_69 ?v_17) P23)) (or (or ?v_258 ?v_245) ?v_230)) (or (or ?v_233 ?v_222) ?v_138)))))))))))))))))))))))))))))))))))))))))
(check-sat)
(exit)
